
Gurobi 9.1.2 (win64, Java) logging started Fri Nov  5 12:05:05 2021

Academic license - for non-commercial use only - expires 2022-10-30
Gurobi Optimizer version 9.1.2 build v9.1.2rc0 (win64)
Thread count: 6 physical cores, 12 logical processors, using up to 12 threads
Optimize a model with 50 rows, 400 columns and 800 nonzeros
Model fingerprint: 0xa218c413
Variable types: 0 continuous, 400 integer (400 binary)
Coefficient statistics:
  Matrix range     [1e+00, 1e+03]
  Objective range  [4e+01, 1e+03]
  Bounds range     [1e+00, 1e+00]
  RHS range        [1e+00, 1e+03]
Found heuristic solution: objective 11693.000000
Presolve removed 1 rows and 84 columns
Presolve time: 0.00s
Presolved: 49 rows, 316 columns, 632 nonzeros
Variable types: 0 continuous, 316 integer (316 binary)
Presolved: 49 rows, 316 columns, 632 nonzeros


Root relaxation: objective 1.454102e+04, 94 iterations, 0.00 seconds

    Nodes    |    Current Node    |     Objective Bounds      |     Work
 Expl Unexpl |  Obj  Depth IntInf | Incumbent    BestBd   Gap | It/Node Time

     0     0 14541.0242    0   10 11693.0000 14541.0242  24.4%     -    0s
H    0     0                    13961.000000 14541.0242  4.15%     -    0s
H    0     0                    14233.000000 14541.0242  2.16%     -    0s
     0     0 14541.0242    0   30 14233.0000 14541.0242  2.16%     -    0s
     0     0 14541.0242    0   30 14233.0000 14541.0242  2.16%     -    0s
     0     0 14511.3770    0   23 14233.0000 14511.3770  1.96%     -    0s
     0     0 14511.3770    0   18 14233.0000 14511.3770  1.96%     -    0s
     0     0 14511.3770    0   25 14233.0000 14511.3770  1.96%     -    0s
     0     0 14511.3770    0   15 14233.0000 14511.3770  1.96%     -    0s
     0     0 14511.3770    0   15 14233.0000 14511.3770  1.96%     -    0s
     0     0 14511.3770    0   26 14233.0000 14511.3770  1.96%     -    0s
     0     0 14511.3770    0   22 14233.0000 14511.3770  1.96%     -    0s
     0     0 14489.3176    0   29 14233.0000 14489.3176  1.80%     -    0s
     0     0 14489.3176    0   29 14233.0000 14489.3176  1.80%     -    0s
     0     0 14489.3176    0   24 14233.0000 14489.3176  1.80%     -    0s
     0     0 14489.3176    0   25 14233.0000 14489.3176  1.80%     -    0s
     0     0 14489.3176    0   22 14233.0000 14489.3176  1.80%     -    0s
     0     0 14489.3176    0   19 14233.0000 14489.3176  1.80%     -    0s
H    0     0                    14235.000000 14489.3176  1.79%     -    0s
     0     2 14489.3176    0   19 14235.0000 14489.3176  1.79%     -    0s
H   68    83                    14313.000000 14489.3176  1.23%  13.7    0s
H  190   290                    14432.000000 14489.3176  0.40%  10.2    0s
H 7924  4433                    14434.000000 14483.4194  0.34%  42.0    4s
  7927  4765 14481.9171   38   80 14434.0000 14483.3922  0.34%  42.0    5s
 22053 11952 14449.8217   59   66 14434.0000 14482.0557  0.33%  52.4   10s
 31262 15965 14439.9803   60   51 14434.0000 14481.5202  0.33%  55.1   15s
 36968 17360 14461.6558   39  142 14434.0000 14461.6558  0.19%  56.4   20s
 38010 17769 14452.3750   72   75 14434.0000 14458.5530  0.17%  57.5   25s
 43976 17488     cutoff   71      14434.0000 14451.5756  0.12%  66.8   30s
 50865 14724 14437.1522   63   79 14434.0000 14441.8572  0.05%  75.4   35s
 57665 10578     cutoff   63      14434.0000 14437.0785  0.02%  80.1   40s

Cutting planes:
  Gomory: 23
  Cover: 152
  Clique: 4
  MIR: 208
  StrongCG: 160
  Flow cover: 18
  Zero half: 1

Explored 58739 nodes (4726183 simplex iterations) in 40.63 seconds
Thread count was 12 (of 12 available processors)

Solution count 7: 14434 14432 14313 ... 11693

Optimal solution found (tolerance 1.00e-04)
Best objective 1.443400000000e+04, best bound 1.443500000000e+04, gap 0.0069%
